100
1000
380
380
379
376
372
366
363
356
351
351
350
348
348
347
347
339
338
337
332
331
331
329
328
322
322
312
307
305
295
290
287
279
278
269
269
268
267
263
263
255
250
249
249
244
240
240
236
235
229
223
223
217
189
183
182
169
157
154
153
148
146
144
142
129
128
122
121
117
109
105
102
101
100
96
96
87
87
85
82
81
80
79
78
77
73
72
70
66
65
65
63
54
52
39
38
35
34
32
31
23
